letting n =  10
letting blocks =  [[1, 1], [1, 6], [2, 1], [2, 4], [2, 8], [2, 9], [4, 4], [4, 6], [5, 3], [5, 5], [5, 6], [5, 7], [5, 9], [5, 10], [6, 1], [6, 2], [6, 3], [7, 1], [7, 3], [7, 5], [7, 8], [7, 9], [8, 2], [8, 4], [8, 9], [8, 10], [9, 5], [9, 6], [9, 7], [10, 5], [10, 9], [10, 10]]
